2 10
127 100 
0 61 51 79 69 98 91 1
1 39 29 24 14 97 8 1
2 77 67 12 2 100 81 2
3 96 86 12 2 23 94 2
4 79 69 58 48 25 97 1
5 109 99 110 100 60 8 1
6 100 90 47 37 81 4 2
7 33 23 110 100 86 39 2
8 73 63 16 6 67 31 1
9 71 61 39 29 83 69 1
